row=7;
column=7;
Board=[|6,5,1,7,3,4,2|2,3,4,6,5,7,1|5,1,6,2,7,3,4|3,6,7,4,2,1,5|7,4,2,5,1,6,3|4,2,3,1,6,5,7|1,7,5,3,4,2,6|];
horizontal=[|1,1,0,1,0,1|0,0,0,1,0,1|1,0,1,0,-1,0|0,0,1,1,1,0|1,1,0,1,0,1|1,0,1,0,1,0|0,1,1,0,1,0|];
vertical=[|1,1,0,1,0,0,1|0,1,0,1,0,1,0|1,0,0,0,1,1,0|0,1,1,0,1,0,1|1,1,0,1,0,1,0|-1,0,-1,0,1,1,1|];
